
Gurobi 9.0.3 (win64, Matlab) logging started Mon Jul 17 18:53:26 2023

Gurobi Optimizer version 9.0.3 build v9.0.3rc0 (win64)
Optimize a model with 20810 rows, 23325 columns and 65917 nonzeros
Model fingerprint: 0xf63cc202
Variable types: 7775 continuous, 15550 integer (15550 binary)
Coefficient statistics:
  Matrix range     [1e-04, 1e+04]
  Objective range  [1e+00, 1e+00]
  Bounds range     [1e+00, 1e+03]
  RHS range        [1e+03, 1e+03]
Presolve removed 14239 rows and 14037 columns
Presolve time: 0.12s
Presolved: 6571 rows, 9288 columns, 29828 nonzeros
Variable types: 3926 continuous, 5362 integer (5360 binary)

Root relaxation: objective 8.356842e+03, 9320 iterations, 0.66 seconds

    Nodes    |    Current Node    |     Objective Bounds      |     Work
 Expl Unexpl |  Obj  Depth IntInf | Incumbent    BestBd   Gap | It/Node Time

     0     0 8355.21012    0 1151          - 8355.21012      -     -    1s
H    0     0                    7210.0000000 8355.21012  15.9%     -    1s
H    0     0                    7240.0000000 8342.37497  15.2%     -    2s
H    0     0                    7244.0000000 8342.37497  15.2%     -    2s
H    0     0                    7245.0000000 8342.37497  15.1%     -    2s
H    0     0                    7249.0000000 8342.37497  15.1%     -    2s
     0     0 7311.61303    0  244 7249.00000 7311.61303  0.86%     -    2s
     0     0 7311.61303    0  233 7249.00000 7311.61303  0.86%     -    2s
     0     0 7311.61303    0  223 7249.00000 7311.61303  0.86%     -    2s
     0     0 7311.61303    0  224 7249.00000 7311.61303  0.86%     -    2s
     0     0 7310.70014    0  205 7249.00000 7310.70014  0.85%     -    2s
     0     0 7310.58276    0  201 7249.00000 7310.58276  0.85%     -    2s
     0     0 7309.86334    0  197 7249.00000 7309.86334  0.84%     -    3s
     0     0 7308.86394    0  100 7249.00000 7308.86394  0.83%     -    3s
     0     0 7308.86394    0   98 7249.00000 7308.86394  0.83%     -    3s
H    0     0                    7268.0000000 7308.86394  0.56%     -    3s
     0     2 7308.86394    0   97 7268.00000 7308.86394  0.56%     -    4s
H    3     8                    7269.0000000 7308.51900  0.54%  68.7    4s
H   19    21                    7271.0000000 7307.90738  0.51%  50.8    4s
H   69    70                    7275.0000000 7307.90738  0.45%  28.1    5s
H  136   146                    7278.0000000 7307.90738  0.41%  23.6    5s
H  214   213                    7280.0000000 7307.90738  0.38%  18.5    5s
H  275   262                    7281.0000000 7307.90738  0.37%  15.7    5s
H  294   271                    7282.0000000 7307.90738  0.36%  14.9    5s
H  296   271                    7285.0000000 7307.90738  0.31%  14.9    5s
H  372   329                    7286.0000000 7307.90738  0.30%  14.2    5s
H  395   350                    7288.0000000 7307.90738  0.27%  13.8    5s
H  396   350                    7289.0000000 7307.90738  0.26%  13.8    5s
H  663   490                    7290.0000000 7307.90738  0.25%  10.5    6s
H  666   468                    7291.0000000 7307.90738  0.23%  10.4    6s
H  705   479                    7292.0000000 7307.90738  0.22%  10.1    6s
H  706   450                    7293.0000000 7307.90738  0.20%  10.1    6s
H  708   400                    7294.0000000 7307.90738  0.19%  10.0    6s
H 1262   342                    7298.0000000 7307.90738  0.14%   8.6    8s
  1265   323 7302.43981   33 1098 7298.00000 7307.90738  0.14%   8.6   10s
  1291   341 7299.78227   29   70 7298.00000 7303.30330  0.07%   8.4   15s
  1308   352 7301.13317   32   77 7298.00000 7301.87932  0.05%   8.3   20s
  1319   360 7300.01905   24 1083 7298.00000 7301.70539  0.05%  18.5   25s
  1336   372 7301.14335   23   87 7298.00000 7301.70539  0.05%  18.3   30s
  1347   379 7299.06774   45   79 7298.00000 7301.70539  0.05%  18.1   35s
H 1532   356                    7299.0000000 7300.84896  0.03%  25.7   37s

Cutting planes:
  Learned: 961
  Gomory: 65
  Cover: 60
  Implied bound: 2
  Clique: 11
  MIR: 164
  StrongCG: 2
  Flow cover: 294
  RLT: 8
  Relax-and-lift: 7

Explored 1568 nodes (52583 simplex iterations) in 37.53 seconds
Thread count was 12 (of 12 available processors)

Solution count 10: 7299 7298 7294 ... 7286

Optimal solution found (tolerance 1.00e-12)
Best objective 7.299000000000e+03, best bound 7.299000000000e+03, gap 0.0000%

Gurobi 9.0.3 (win64, Matlab) logging started Mon Jul 17 19:49:45 2023

Gurobi Optimizer version 9.0.3 build v9.0.3rc0 (win64)
Optimize a model with 20810 rows, 23325 columns and 65917 nonzeros
Model fingerprint: 0xf63cc202
Variable types: 7775 continuous, 15550 integer (15550 binary)
Coefficient statistics:
  Matrix range     [1e-04, 1e+04]
  Objective range  [1e+00, 1e+00]
  Bounds range     [1e+00, 1e+03]
  RHS range        [1e+03, 1e+03]
Presolve removed 14239 rows and 14037 columns
Presolve time: 0.11s
Presolved: 6571 rows, 9288 columns, 29828 nonzeros
Variable types: 3926 continuous, 5362 integer (5360 binary)

Root relaxation: objective 8.356842e+03, 9320 iterations, 0.66 seconds

    Nodes    |    Current Node    |     Objective Bounds      |     Work
 Expl Unexpl |  Obj  Depth IntInf | Incumbent    BestBd   Gap | It/Node Time

     0     0 8355.21012    0 1151          - 8355.21012      -     -    1s
H    0     0                    7210.0000000 8355.21012  15.9%     -    1s
H    0     0                    7240.0000000 8342.37497  15.2%     -    2s
H    0     0                    7244.0000000 8342.37497  15.2%     -    2s
H    0     0                    7245.0000000 8342.37497  15.1%     -    2s
H    0     0                    7249.0000000 8342.37497  15.1%     -    2s
     0     0 7311.61303    0  244 7249.00000 7311.61303  0.86%     -    2s
     0     0 7311.61303    0  233 7249.00000 7311.61303  0.86%     -    2s
     0     0 7311.61303    0  223 7249.00000 7311.61303  0.86%     -    2s
     0     0 7311.61303    0  224 7249.00000 7311.61303  0.86%     -    2s
     0     0 7310.70014    0  205 7249.00000 7310.70014  0.85%     -    2s
     0     0 7310.58276    0  201 7249.00000 7310.58276  0.85%     -    2s
     0     0 7309.86334    0  197 7249.00000 7309.86334  0.84%     -    3s
     0     0 7308.86394    0  100 7249.00000 7308.86394  0.83%     -    3s
     0     0 7308.86394    0   98 7249.00000 7308.86394  0.83%     -    3s
H    0     0                    7268.0000000 7308.86394  0.56%     -    3s
     0     2 7308.86394    0   97 7268.00000 7308.86394  0.56%     -    4s
H    3     8                    7269.0000000 7308.51900  0.54%  68.7    4s
H   19    21                    7271.0000000 7307.90738  0.51%  50.8    4s
H   69    70                    7275.0000000 7307.90738  0.45%  28.1    5s
H  136   146                    7278.0000000 7307.90738  0.41%  23.6    5s
H  214   213                    7280.0000000 7307.90738  0.38%  18.5    5s
H  275   262                    7281.0000000 7307.90738  0.37%  15.7    5s
H  294   271                    7282.0000000 7307.90738  0.36%  14.9    5s
H  296   271                    7285.0000000 7307.90738  0.31%  14.9    5s
H  372   329                    7286.0000000 7307.90738  0.30%  14.2    5s
H  395   350                    7288.0000000 7307.90738  0.27%  13.8    6s
H  396   350                    7289.0000000 7307.90738  0.26%  13.8    6s
H  663   490                    7290.0000000 7307.90738  0.25%  10.5    6s
H  666   468                    7291.0000000 7307.90738  0.23%  10.4    6s
H  705   479                    7292.0000000 7307.90738  0.22%  10.1    6s
H  706   450                    7293.0000000 7307.90738  0.20%  10.1    6s
H  708   400                    7294.0000000 7307.90738  0.19%  10.0    6s
H 1262   342                    7298.0000000 7307.90738  0.14%   8.6    8s
  1265   323 7302.43981   33 1098 7298.00000 7307.90738  0.14%   8.6   11s
  1288   339 7301.95665   20   78 7298.00000 7303.40136  0.07%   8.4   15s
  1308   352 7301.13317   32   77 7298.00000 7301.87932  0.05%   8.3   20s
  1319   360 7300.01905   24 1083 7298.00000 7301.70539  0.05%  18.5   25s
  1333   370 7299.50804    4   84 7298.00000 7301.70539  0.05%  18.3   30s
  1346   378 7301.70539   21   79 7298.00000 7301.70539  0.05%  18.1   35s
H 1532   356                    7299.0000000 7300.84896  0.03%  25.7   38s

Cutting planes:
  Learned: 961
  Gomory: 65
  Cover: 60
  Implied bound: 2
  Clique: 11
  MIR: 164
  StrongCG: 2
  Flow cover: 294
  RLT: 8
  Relax-and-lift: 7

Explored 1568 nodes (52583 simplex iterations) in 38.19 seconds
Thread count was 12 (of 12 available processors)

Solution count 10: 7299 7298 7294 ... 7286

Optimal solution found (tolerance 1.00e-12)
Best objective 7.299000000000e+03, best bound 7.299000000000e+03, gap 0.0000%
